\ Model prob_115
\ LP format - for model browsing. Use MPS format to capture full model detail.
Maximize
  13 inv_0 + 16 inv_1 + 16 inv_2 + 14 inv_3 + 39 inv_4
Subject To
 R0: 11 inv_0 + 53 inv_1 + 5 inv_2 + 5 inv_3 + 29 inv_4 <= 40
 R1: 3 inv_0 + 6 inv_1 + 5 inv_2 + inv_3 + 34 inv_4 <= 20
Bounds
 inv_0 <= 1
 inv_1 <= 1
 inv_2 <= 1
 inv_3 <= 1
 inv_4 <= 1
End
